# DGP instance in .dat format for dgp.mod
# this graph is a DGP encoding of a random instance

param : E : c I :=
  1 2  4.000 0
  2 3  2.000 0
  3 4  3.000 0
  4 5  1.000 0
  2 5  2.000 0
  1 4  1.000 0
;
